WARNING: for repeatability, setting FPU to use double precision
============================[ Problem Statistics ]=============================
|                                                                             |
|  Number of variables:            50                                         |
|  Number of clauses:             218                                         |
|  Parse time:                   0.00 s                                       |
|                                                                             |
============================[ Search Statistics ]==============================
| Conflicts |          ORIGINAL         |          LEARNT          | Progress |
|           |    Vars  Clauses Literals |    Limit  Clauses Lit/Cl |          |
===============================================================================
===============================================================================
restarts              : 1
conflicts             : 14             (10152 /sec)
decisions             : 30             (0.00 % random) (21755 /sec)
propagations          : 231            (167513 /sec)
conflict literals     : 58             (12.12 % deleted)
Memory used           : 20.00 MB
CPU time              : 0.001379 s

SATISFIABLE
